************************************************************************
file with basedata            : mm50_.bas
initial value random generator: 1171
************************************************************************
projects                      :  1
jobs (incl. supersource/sink ):  12
horizon                       :  85
RESOURCES
  - renewable                 :  2   R
  - nonrenewable              :  2   N
  - doubly constrained        :  0   D
************************************************************************
PROJECT INFORMATION:
pronr.  #jobs rel.date duedate tardcost  MPM-Time
    1     10      0       13        8       13
************************************************************************
PRECEDENCE RELATIONS:
jobnr.    #modes  #successors   successors
   1        1          3           2   3   4
   2        3          1           6
   3        3          1           5
   4        3          3           7   8   9
   5        3          2           9  10
   6        3          3           8   9  11
   7        3          1          11
   8        3          1          10
   9        3          1          12
  10        3          1          12
  11        3          1          12
  12        1          0        
************************************************************************
REQUESTS/DURATIONS:
jobnr. mode duration  R 1  R 2  N 1  N 2
------------------------------------------------------------------------
  1      1     0       0    0    0    0
  2      1     5       9    6    7    0
         2     6       8    6    0    6
         3    10       8    2    0    3
  3      1     1       2    6   10    0
         2     3       1    6    0    5
         3     5       1    5    6    0
  4      1     1       3    9    8    0
         2     3       3    9    0    7
         3    10       2    9    0    5
  5      1     3       4    7    7    0
         2     3       4    7    0    7
         3     9       3    5    7    0
  6      1     1       6    7    0    9
         2     6       6    5    0    9
         3     9       6    3    0    8
  7      1     1       3    1    0    7
         2     2       2    1    0    4
         3     8       2    1    3    0
  8      1     4       7    2    0    8
         2     6       1    2    0    5
         3     6       2    1    5    0
  9      1     4       9    7    0    3
         2     8       9    5    0    3
         3     9       8    4    6    0
 10      1     3       8    9    4    0
         2     6       6    5    4    0
         3     9       5    3    0    1
 11      1     2      10    9    0    3
         2     2       8    9    4    0
         3    10       8    7    0    2
 12      1     0       0    0    0    0
************************************************************************
RESOURCEAVAILABILITIES:
  R 1  R 2  N 1  N 2
   21   17   27   32
************************************************************************
MAXIMAL LAGS:
from  to  type  delay
    1   12   ES      0
    1    2   ES      0
    2   12   ES      0
    1    3   ES      0
    3   12   ES      0
    1    4   ES      0
    4   12   ES      0
    1    5   ES      0
    5   12   ES      0
    1    6   ES      0
    6   12   ES      0
    1    7   ES      0
    7   12   ES      0
    1    8   ES      0
    8   12   ES      0
    1    9   ES      0
    9   12   ES      0
    1   10   ES      0
   10   12   ES      0
    1   11   ES      0
   11   12   ES      0
    1   12   ES      0
    2    6   SS      9
    2    6   SE      9
    2    6   ES      1
    2    6   EE      4
    3    5   SS      3
    3    5   SE      0
    3    5   ES    -10
    3    5   EE      1
    4    7   SS     -4
    4    7   SE     10
    4    7   ES      5
    4    7   EE     -9
    4    8   SS     10
    4    8   SE     12
    4    8   ES      7
    4    8   EE      8
    4    9   SS      5
    4    9   SE     10
    4    9   ES    -12
    4    9   EE      2
    5    9   SS      3
    5    9   SE     11
    5    9   ES    -11
    5    9   EE     -3
    5   10   SS      0
    5   10   SE     11
    5   10   ES     12
    5   10   EE    -11
    6    8   SS     -1
    6    8   SE      0
    6    8   ES     10
    6    8   EE      4
    6    9   SS      8
    6    9   SE      8
    6    9   ES      2
    6    9   EE      1
    6   11   SS     -9
    6   11   SE     -9
    6   11   ES     -8
    6   11   EE     -4
    7   11   SS     12
    7   11   SE      6
    7   11   ES     12
    7   11   EE     -9
    8   10   SS     11
    8   10   SE     -7
    8   10   ES     -1
    8   10   EE      1
************************************************************************
